(set-logic QF_S)
(declare-fun _var_0xINPUT_390355_() String)
(declare-fun __woorpje_diseq_pref0_() String)
(declare-fun __woorpje_diseq_suf_l0_() String)
(declare-fun __woorpje_diseq_suf_r0_() String)
(declare-fun __woorpje_diseq_pref1_() String)
(declare-fun __woorpje_diseq_suf_l1_() String)
(declare-fun __woorpje_diseq_suf_r1_() String)
(declare-fun __woorpje_diseq_pref2_() String)
(declare-fun __woorpje_diseq_suf_l2_() String)
(declare-fun __woorpje_diseq_suf_r2_() String)
(assert (=(str.++  "2vbcJ9lN6J" "")(str.++ __woorpje_diseq_pref0_  "2" __woorpje_diseq_suf_l0_  "")) )
(assert (=(str.++ _var_0xINPUT_390355_  "")(str.++ __woorpje_diseq_pref0_  "N" __woorpje_diseq_suf_r0_  "")) )
(assert (=(str.++  "ND6MEXdqBD" "")(str.++ _var_0xINPUT_390355_  "")) )
(assert  (<= (* (str.len _var_0xINPUT_390355_)(- 1)) (- 1)) )
(check-sat)
